c Generated map
c Size: 13 * 13, weights in range: 1 to 10, walls: True, with ratio 0.4
c dim 2 of 3
c
p sp 169 112
c graph contains 169 nodes and 112 arcs
c
a 1 14 5
a 14 1 5
a 1 2 9
a 2 1 9
a 2 15 6
a 15 2 6
a 4 5 2
a 5 4 2
a 7 20 2
a 20 7 2
a 7 8 7
a 8 7 7
a 8 21 5
a 21 8 5
a 10 23 10
a 23 10 10
a 10 11 9
a 11 10 9
a 11 24 9
a 24 11 9
a 11 12 5
a 12 11 5
a 12 13 4
a 13 12 4
a 13 26 10
a 26 13 10
a 14 27 10
a 27 14 10
a 14 15 10
a 15 14 10
a 15 28 1
a 28 15 1
a 15 16 5
a 16 15 5
a 19 32 9
a 32 19 9
a 19 20 6
a 20 19 6
a 20 21 4
a 21 20 4
a 21 34 8
a 34 21 8
a 23 24 7
a 24 23 7
a 24 37 1
a 37 24 1
a 27 40 9
a 40 27 9
a 27 28 5
a 28 27 5
a 28 41 3
a 41 28 3
a 31 44 3
a 44 31 3
a 31 32 10
a 32 31 10
a 32 45 4
a 45 32 4
a 34 47 5
a 47 34 5
a 37 50 2
a 50 37 2
a 37 38 5
a 38 37 5
a 38 51 7
a 51 38 7
a 40 41 4
a 41 40 4
a 41 42 10
a 42 41 10
a 44 57 5
a 57 44 5
a 44 45 6
a 45 44 6
a 45 58 5
a 58 45 5
a 45 46 2
a 46 45 2
a 46 47 3
a 47 46 3
a 47 60 9
a 60 47 9
a 49 50 6
a 50 49 6
a 50 63 5
a 63 50 5
a 50 51 8
a 51 50 8
a 51 64 2
a 64 51 2
a 51 52 6
a 52 51 6
a 52 65 1
a 65 52 1
a 56 57 7
a 57 56 7
a 57 58 7
a 58 57 7
a 58 71 6
a 71 58 6
a 63 76 4
a 76 63 4
a 63 64 3
a 64 63 3
a 64 65 8
a 65 64 8
a 66 79 5
a 79 66 5
a 66 67 9
a 67 66 9
a 67 80 10
a 80 67 10
a 67 68 2
a 68 67 2
a 71 72 3
a 72 71 3
a 75 88 1
a 88 75 1
a 75 76 1
a 76 75 1
a 76 89 7
a 89 76 7
a 79 92 7
a 92 79 7
a 79 80 10
a 80 79 10
a 80 93 5
a 93 80 5
a 88 89 3
a 89 88 3
a 92 105 2
a 105 92 2
a 92 93 4
a 93 92 4
a 93 94 10
a 94 93 10
a 97 110 6
a 110 97 6
a 97 98 4
a 98 97 4
a 98 111 6
a 111 98 6
a 98 99 1
a 99 98 1
a 99 112 10
a 112 99 10
a 99 100 4
a 100 99 4
a 100 113 3
a 113 100 3
a 109 110 9
a 110 109 9
a 110 123 1
a 123 110 1
a 110 111 4
a 111 110 4
a 111 112 6
a 112 111 6
a 112 113 5
a 113 112 5
a 113 126 1
a 126 113 1
a 116 129 8
a 129 116 8
a 116 117 2
a 117 116 2
a 117 130 2
a 130 117 2
a 120 121 10
a 121 120 10
a 121 134 4
a 134 121 4
a 126 139 7
a 139 126 7
a 126 127 7
a 127 126 7
a 127 140 1
a 140 127 1
a 127 128 7
a 128 127 7
a 128 141 6
a 141 128 6
a 128 129 10
a 129 128 10
a 129 142 5
a 142 129 5
a 129 130 10
a 130 129 10
a 130 143 6
a 143 130 6
a 134 147 8
a 147 134 8
a 134 135 2
a 135 134 2
a 138 139 4
a 139 138 4
a 139 140 8
a 140 139 8
a 140 141 1
a 141 140 1
a 141 142 1
a 142 141 1
a 142 143 10
a 143 142 10
a 144 157 10
a 157 144 10
a 147 160 7
a 160 147 7
a 159 160 4
a 160 159 4
a 160 161 5
a 161 160 5
a 161 162 6
a 162 161 6
a 162 163 10
a 163 162 10
a 163 164 5
a 164 163 5
a 164 165 1
a 165 164 1
a 165 166 9
a 166 165 9
a 168 169 8
a 169 168 8
